RT is False
Default write of storage_offers_DA.csv just to have a file (but constraint should be inactive)
Reading model...
...model read.
creating competitive generators file...
...competitive generators recorded.
Loading data...
.. day-ahead data with real-time VRE data read.
Compiling instance...
...instance created.
Creating Offer Mitigation (model will solve as dispatch if TRUE)...
NOTE: storage offers will not be mitigated
...storage offer mitigation file created
Converting model to MPEC...
...converted
NOTE: initial MIP solve with only storage competitive to get feasible solution
Solving...

Welcome to IBM(R) ILOG(R) CPLEX(R) Interactive Optimizer 12.9.0.0
  with Simplex, Mixed Integer & Barrier Optimizers
5725-A06 5725-A29 5724-Y48 5724-Y49 5724-Y54 5724-Y55 5655-Y21
Copyright IBM Corp. 1988, 2019.  All Rights Reserved.

Type 'help' for a list of available commands.
Type 'help' followed by a command name for more
information on commands.

CPLEX> Logfile 'cplex.log' closed.
Logfile 'C:\Users\llavin\Desktop\test826\logs\tmply7hhp1c.cplex.log' open.
CPLEX> New value for parallel optimization mode: -1
CPLEX> New value for emphasis for MIP optimization: 1
CPLEX> New value for mixed integer optimality gap tolerance: 0.01
CPLEX> New value for integrality tolerance: 1e-12
CPLEX> New value for deterministic time limit in ticks: 75000
CPLEX> Problem 'C:\Users\llavin\Desktop\test826\logs\tmpj7swm490.pyomo.lp' read.
Read time = 0.25 sec. (13.92 ticks)
CPLEX> Problem name         : C:\Users\llavin\Desktop\test826\logs\tmpj7swm490.pyomo.lp
Objective sense      : Maximize
Variables            :   53809  [Nneg: 1,  Box: 22004,  Free: 4464,
                                 Binary: 27340]
Objective nonzeros   :    8980
Linear constraints   :  123253  [Less: 41346,  Greater: 59096,  Equal: 22811]
  Nonzeros           :  293289
  RHS nonzeros       :   67491

Variables            : Min LB: -5000.000        Max UB: 1000000.       
Objective nonzeros   : Min   : 0.05000000       Max   : 722.0000       
Linear constraints   :
  Nonzeros           : Min   : 0.05000000       Max   : 1000000.       
  RHS nonzeros       : Min   : 0.05000000       Max   : 1000000.       
CPLEX> CPXPARAM_Parallel                                -1
CPXPARAM_Emphasis_MIP                            1
CPXPARAM_DetTimeLimit                            75000
CPXPARAM_MIP_Tolerances_MIPGap                   0.01
CPXPARAM_MIP_Tolerances_Integrality              9.9999999999999998e-13
Tried aggregator 4 times.
MIP Presolve eliminated 88749 rows and 19005 columns.
MIP Presolve added 3398 rows and 0 columns.
MIP Presolve modified 24774 coefficients.
Aggregator did 12983 substitutions.
Reduced MIP has 24919 rows, 21265 columns, and 71090 nonzeros.
Reduced MIP has 8391 binaries, 0 generals, 0 SOSs, and 0 indicators.
Presolve time = 0.31 sec. (196.21 ticks)
Probing fixed 424 vars, tightened 6092 bounds.
Probing time = 0.08 sec. (19.29 ticks)
Tried aggregator 2 times.
MIP Presolve eliminated 963 rows and 850 columns.
MIP Presolve modified 3035 coefficients.
Aggregator did 41 substitutions.
Reduced MIP has 23915 rows, 20374 columns, and 68191 nonzeros.
Reduced MIP has 7966 binaries, 0 generals, 0 SOSs, and 0 indicators.
Presolve time = 0.11 sec. (87.32 ticks)
Probing fixed 0 vars, tightened 368 bounds.
Probing time = 0.14 sec. (22.86 ticks)
Clique table members: 42796.
MIP emphasis: integer feasibility.
MIP search method: dynamic search.
Parallel mode: opportunistic, using up to 32 threads.
Root relaxation solution time = 0.48 sec. (756.91 ticks)

        Nodes                                         Cuts/
   Node  Left     Objective  IInf  Best Integer    Best Bound    ItCnt     Gap

      0     0     4003.6483   264                   4003.6483     6426         
      0     0     4003.6483    23                    Cuts: 61     6454         
      0     0     4001.1372    23                     Cuts: 5     6459         
      0     0     4001.1372    24                     Cuts: 2     6463         
      0     3     3916.0207    24                     Cuts: 5     6474         
Elapsed time = 3.63 sec. (1840.86 ticks, tree = 0.02 MB, solutions = 0)
    686   150    -7804.9655    30                   3922.2517     8376         
   1103   683     3599.1027    30                   3922.2517    23165         
   1730   904     3922.2517    24                   3922.2517    31522         
   2310  1272     3236.8187    23                   3922.2517    47570         
   2886  1638    infeasible                         3922.2517    64549         
   3464  2100     1925.4762    20                   3922.2517    85527         
   4041  2218   -81098.2309    79                   3922.2517    88721         
   4598  2650     1616.9275    24                   3922.2517   105724         
   5200  2633   -68435.2972    36                   3922.2517   104561         
   7488  3827  -117877.7505    37                   3922.2517   159709         
Elapsed time = 19.27 sec. (4942.94 ticks, tree = 115.29 MB, solutions = 0)
   9115  4666    infeasible                         3911.8099   188205         
   9641  4759     3229.7641    18                   3911.8099   188918         
   9643  6075    infeasible                         3911.8099   233949         
  11775   676     2500.5713    19                   3823.4319   262093         
  14220  2394     3275.3979     7                   3823.4319   308475         
  15046  2769     3211.4452     4                   3823.4319   318750         
  15457  2853    infeasible                         3823.4319   322239         
  15763  2857    infeasible                         3823.4319   322527         
  16042  2857    infeasible                         3823.4319   322611         
  16271  2858     3167.3244     4                   3823.4319   322701         
Elapsed time = 57.39 sec. (15697.44 ticks, tree = 32.52 MB, solutions = 0)
  16530  2880     2842.1658     4                   3823.4319   322910         
  16894  2966     3207.9236    11                   3823.4319   323437         
  17235  3000    infeasible                         3823.4319   325474         
  17469  3204    infeasible                         3823.4319   329791         
  17666  3076     3138.9392     5                   3823.4319   324908         
  17872  3429     3155.2585    10                   3823.4319   332642         
  18187  3478    infeasible                         3823.4319   333343         
  18415  3291     3138.6398     4                   3823.4319   331316         
  18679  3331     2946.8305     7                   3823.4319   331651         
  18897  3460     3167.6237     3                   3823.4319   333855         
Elapsed time = 81.33 sec. (25262.56 ticks, tree = 54.31 MB, solutions = 0)
  19098  3536     3138.6398     4                   3823.4319   334985         
  19281  3529     2946.5312     5                   3823.4319   334943         
  19446  3654    infeasible                         3823.4319   337479         
  19592  3843    infeasible                         3823.4319   341119         
  19730  3761     3178.6299     4                   3823.4319   339581         
  19868  3780    infeasible                         3823.4319   339973         
  19984  3788     3135.6444     4                   3823.4319   340107         
  20120  3813     3138.6398     5                   3823.4319   340659         
  20234  3951     3138.9392     4                   3823.4319   342458         
  20348  4056    infeasible                         3823.4319   343597         
Elapsed time = 81.33 sec. (34857.95 ticks, tree = 63.11 MB, solutions = 0)
  20452  3942    infeasible                         3823.4319   342380         
  20552  4009    infeasible                         3823.4319   343039         
  20650  3959    infeasible                         3823.4319   342521         
  20738  4094     2790.0376     4                   3823.4319   343853         
  20827  3961     3135.9437     4                   3823.4319   342542         
  20918  4059    infeasible                         3823.4319   343620         
  21006  4019     2696.2755     4                   3823.4319   343202         
  21098  4110    infeasible                         3823.4319   343974         
  21167  4075    infeasible                         3823.4319   343775         
  21255  4123     3211.4452     3                   3823.4319   344011         
Elapsed time = 82.50 sec. (44564.46 ticks, tree = 63.63 MB, solutions = 0)
  21324  4136     1840.2810     2                   3823.4319   344143         
  21401  4097    infeasible                         3823.4319   343872         
  21469  4120    infeasible                         3823.4319   344034         
  21540  4123     3138.6398     4                   3823.4319   344046         
  21612  4138     2959.7363     4                   3823.4319   344144         
  21677  4143    infeasible                         3823.4319   344219         
  21730  4136     1840.2810     2                   3823.4319   344153         
  21764  4180     3138.6398     4                   3823.4319   344494         
  21794  4180    infeasible                         3823.4319   344498         
  21816  4171     3135.6444     4                   3823.4319   344457         
Elapsed time = 84.97 sec. (54334.10 ticks, tree = 62.68 MB, solutions = 0)
  21831  4174     3135.6444     4                   3823.4319   344474         
  21839  4177     3135.6444     4                   3823.4319   344486         
  21841  4260    infeasible                         3823.4319   353619         
  23445   257     3140.5869    15                   3823.4319   379084         
  25355  1383     3253.7163     5                   3823.4319   431179         
  27156  2230    infeasible                         3823.4319   454711         
  28031  3093     3286.9693     6                   3823.4319   478647         
  28855  3388     2784.4027     4                   3823.4319   482784         
  29645  3886     3254.1459     9                   3823.4319   493109         
  30301  4178    infeasible                         3823.4319   501690         
Elapsed time = 113.42 sec. (65300.36 ticks, tree = 30.56 MB, solutions = 0)
  30721  4539    infeasible                         3823.4319   510296         
  31036  4308     2788.4636     6                   3823.4319   505144         
  31299  4596    infeasible                         3823.4319   511998         
  31525  4490     3229.7641     4                   3823.4319   509702         
  31734  4655     3229.7641     3                   3823.4319   514910         
  31918  4861    infeasible                         3823.4319   519171         
  32087  4909     3229.7641     3                   3823.4319   519556         
  32239  4935    infeasible                         3823.4319   519889         
  32341  4937     3229.7641     4                   3823.4319   519881         
  32402  4974    infeasible                         3823.4319   520288         
Elapsed time = 122.25 sec. (74914.25 ticks, tree = 36.56 MB, solutions = 0)

Clique cuts applied:  20
Cover cuts applied:  49
Implied bound cuts applied:  6
Flow cuts applied:  71
Mixed integer rounding cuts applied:  10
Gomory fractional cuts applied:  41

Root node processing (before b&c):
  Real time             =    2.34 sec. (1808.76 ticks)
Parallel b&c, 32 threads:
  Real time             =  120.30 sec. (73806.51 ticks)
  Sync time (average)   =    2.61 sec.
  Wait time (average)   =    0.48 sec.
                          ------------
Total (root+branch&cut) =  122.64 sec. (75615.26 ticks)


MIP - Deterministic time limit exceeded, no integer solution.
Current MIP best bound =  3.8234318733e+03 (gap is infinite)
Solution time =  122.64 sec.  Iterations = 521135  Nodes = 32413 (5089)
Deterministic time = 75615.42 ticks  (616.56 ticks/sec)

CPLEX> CPLEX Error  1217: No solution exists.
No file written.
CPLEX> gap is infinite, so writing 0
NOTE: no warmstart specified for MIP iteration, default behavior is true
NOTE: resolving with all competitive generators using storage-only solution to warmstart
Solving...

Welcome to IBM(R) ILOG(R) CPLEX(R) Interactive Optimizer 12.9.0.0
  with Simplex, Mixed Integer & Barrier Optimizers
5725-A06 5725-A29 5724-Y48 5724-Y49 5724-Y54 5724-Y55 5655-Y21
Copyright IBM Corp. 1988, 2019.  All Rights Reserved.

Type 'help' for a list of available commands.
Type 'help' followed by a command name for more
information on commands.

CPLEX> Logfile 'cplex.log' closed.
Logfile 'C:\Users\llavin\Desktop\test826\logs\tmpdnufm45f.cplex.log' open.
CPLEX> New value for parallel optimization mode: -1
CPLEX> New value for emphasis for MIP optimization: 1
CPLEX> New value for mixed integer optimality gap tolerance: 0.01
CPLEX> New value for integrality tolerance: 1e-12
CPLEX> New value for deterministic time limit in ticks: 75000
CPLEX> Problem 'C:\Users\llavin\Desktop\test826\logs\tmp2ltzccw_.pyomo.lp' read.
Read time = 0.25 sec. (13.94 ticks)
CPLEX> MIP start file 'C:\Users\llavin\Desktop\test826\logs\tmprgla_y0b.cplex.mst' read.
CPLEX> Problem name         : C:\Users\llavin\Desktop\test826\logs\tmp2ltzccw_.pyomo.lp
Objective sense      : Maximize
Variables            :   54529  [Nneg: 1,  Box: 22724,  Free: 4464,
                                 Binary: 27340]
Objective nonzeros   :    9700
Linear constraints   :  123253  [Less: 41346,  Greater: 59096,  Equal: 22811]
  Nonzeros           :  293289
  RHS nonzeros       :   67491

Variables            : Min LB: -5000.000        Max UB: 1000000.       
Objective nonzeros   : Min   : 0.05000000       Max   : 722.0000       
Linear constraints   :
  Nonzeros           : Min   : 0.05000000       Max   : 1000000.       
  RHS nonzeros       : Min   : 0.05000000       Max   : 1000000.       
CPLEX> CPXPARAM_Parallel                                -1
CPXPARAM_Emphasis_MIP                            1
CPXPARAM_DetTimeLimit                            75000
CPXPARAM_MIP_Tolerances_MIPGap                   0.01
CPXPARAM_MIP_Tolerances_Integrality              9.9999999999999998e-13
Warning:  No solution found from 1 MIP starts.
Retaining values of one MIP start for possible repair.
Tried aggregator 4 times.
MIP Presolve eliminated 88749 rows and 19725 columns.
MIP Presolve added 3398 rows and 0 columns.
MIP Presolve modified 24774 coefficients.
Aggregator did 12983 substitutions.
Reduced MIP has 24919 rows, 21265 columns, and 71090 nonzeros.
Reduced MIP has 8391 binaries, 0 generals, 0 SOSs, and 0 indicators.
Presolve time = 0.33 sec. (196.64 ticks)
Probing fixed 424 vars, tightened 6092 bounds.
Probing time = 0.08 sec. (19.29 ticks)
Tried aggregator 2 times.
MIP Presolve eliminated 963 rows and 850 columns.
MIP Presolve modified 3035 coefficients.
Aggregator did 41 substitutions.
Reduced MIP has 23915 rows, 20374 columns, and 68191 nonzeros.
Reduced MIP has 7966 binaries, 0 generals, 0 SOSs, and 0 indicators.
Presolve time = 0.11 sec. (87.32 ticks)
Probing fixed 0 vars, tightened 368 bounds.
Probing time = 0.14 sec. (22.86 ticks)
Clique table members: 42796.
MIP emphasis: integer feasibility.
MIP search method: dynamic search.
Parallel mode: opportunistic, using up to 32 threads.
Root relaxation solution time = 0.53 sec. (756.91 ticks)

        Nodes                                         Cuts/
   Node  Left     Objective  IInf  Best Integer    Best Bound    ItCnt     Gap

      0     0     4003.6483   264                   4003.6483     6426         
      0     0     4003.6483    23                    Cuts: 61     6454         
      0     0     4001.1372    23                     Cuts: 5     6459         
      0     0     4001.1372    24                     Cuts: 2     6463         
Repair heuristic found nothing.
      0     3     3916.0207    24                     Cuts: 4     6474         
Elapsed time = 3.91 sec. (1877.70 ticks, tree = 0.02 MB, solutions = 0)
    653   271     3047.8316    24                   3920.9364    16415         
   1112   514     2240.3148    19                   3920.9364    25730         
   1732   987    infeasible                         3920.9364    44882         
   2355  1273     3018.7542    18                   3920.9364    55507         
   2965  1617     3769.6273    22                   3920.9364    70587         
   3590  1735    infeasible                         3920.9364    75359         
   4279  2311  -203000.1115    38                   3920.9364    96656         
   4866  2520    -2492.7418    32                   3920.9364   102856         
   5340  3153     3676.9601    24                   3920.9364   124920         
*  6720+ 1465                         3217.2944     3920.9364            21.87%
Elapsed time = 18.09 sec. (4680.05 ticks, tree = 16.66 MB, solutions = 1)
   8506  1495        cutoff           3217.2944     3920.9364   165931   21.87%
   8530  2013    infeasible           3217.2944     3908.5936   176218   21.49%
  12358   585     3497.1071    12     3217.2944     3849.1005   186976   19.64%
  15743  1602        cutoff           3217.2944     3831.8421   217921   19.10%
  21213  2399    infeasible           3217.2944     3816.6100   251342   18.63%
  24753  3112     3366.3873    25     3217.2944     3816.6100   291256   18.63%
  28300  3103     3380.8758    25     3217.2944     3795.2520   302583   17.96%
  33819  3127     3349.3589    31     3217.2944     3795.2520   341606   17.96%
  38158  3142     3247.8708    22     3217.2944     3795.2520   355106   17.96%
  39669  3054        cutoff           3217.2944     3795.2520   391781   17.96%
Elapsed time = 55.61 sec. (14893.58 ticks, tree = 10.40 MB, solutions = 1)
  44722  2718        cutoff           3217.2944     3795.2520   428202   17.96%
  50495  2683    infeasible           3217.2944     3790.3460   436474   17.81%
  54979  2182        cutoff           3217.2944     3790.3460   477735   17.81%
  57540  1289        cutoff           3217.2944     3639.7633   521031   13.13%
  59905  1514    infeasible           3217.2944     3621.6314   515846   12.57%
  61305   627     3310.9375    29     3217.2944     3601.1522   538731   11.93%
  61346   590        cutoff           3217.2944     3312.5376   544477    2.96%

GUB cover cuts applied:  4
Clique cuts applied:  7
Cover cuts applied:  14
Implied bound cuts applied:  32
Flow cuts applied:  22
Mixed integer rounding cuts applied:  24
Gomory fractional cuts applied:  71

Root node processing (before b&c):
  Real time             =    2.55 sec. (1845.20 ticks)
Parallel b&c, 32 threads:
  Real time             =   74.23 sec. (21014.46 ticks)
  Sync time (average)   =    3.69 sec.
  Wait time (average)   =    0.26 sec.
                          ------------
Total (root+branch&cut) =   76.78 sec. (22859.67 ticks)

Solution pool: 1 solution saved.

MIP - Integer optimal, tolerance (0.01/1e-06):  Objective =  3.2172944194e+03
Current MIP best bound =  3.2494655628e+03 (gap = 32.1711, 1.00%)
Solution time =   76.78 sec.  Iterations = 567055  Nodes = 63522 (89)
Deterministic time = 22859.82 ticks  (297.73 ticks/sec)

CPLEX> Incumbent solution written to file 'C:\Users\llavin\Desktop\test826\logs\tmpfn64yy8l.cplex.sol'.
CPLEX> Exporting results... 
